11111111111111111111
11111111111111111111
11111111111111111111
11111111100000111111
11111111100000111111
11111111100000111111
11111111100000111111
11111111100000111111
11111111111111111111
11111111111111111111
11111111111111111111
11111111111111111111
11111111111111111111
11111111111111111111
11111111111111111111
11111111111111111111
10 5
6
2 0 3 2
1 0 3 5
0 2 5 10
3 0 9 10
5 0 14 10
4 1 14 3